c This is COMiniSatPS.
c WARNING: for repeatability, setting FPU to use double precision
c ============================[ Problem Statistics ]=============================
c |                                                                             |
c |  Number of variables:      11208260                                         |
c |  Number of clauses:        32823957                                         |
c |  Parse time:                  20.02 s                                       |
c |                                                                             |
c ============================[ Search Statistics ]==============================
c | Conflicts |          ORIGINAL         |          LEARNT          | Progress |
c |           |    Vars  Clauses Literals |    Limit  Clauses Lit/Cl |          |
c ===============================================================================
c Switched to VSIDS.
c Switched to LRB.
c Switched to VSIDS.
c Switched to LRB.
c Switched to VSIDS.
c Switched to LRB.
c Switched to VSIDS.
c Switched to LRB.
c Switched to VSIDS.
c Switched to LRB.
c Switched to VSIDS.
c Switched to LRB.
c Switched to VSIDS.
c Switched to LRB.
c Switched to VSIDS.
c Switched to LRB.
c Switched to VSIDS.
c Switched to LRB.
c ===============================================================================
c restarts              : 85
c conflicts             : 16020          (5 /sec)
c decisions             : 796173254      (0.00 % random) (224409 /sec)
c propagations          : 6671932117     (1880551 /sec)
c conflict literals     : 100334         (8.05 % deleted)
c Memory used           : 4625.00 MB
c CPU time              : 3547.86 s

s UNKNOWN
